
Gurobi 11.0.3 (linux64) logging started Fri Nov 22 14:27:01 2024

Set parameter LogFile to value "/home/yihong/Coding/OR_SUC/SUC_results_bigM100000_thread4/case24_ieee_rts_theta0.5_epsilon0.025_gurobi_seed600000_num_gen100_N_WDR100_load_scaling_factor1_proposed_T12quadra_cost.txt"
Set parameter TimeLimit to value 3600
Gurobi Optimizer version 11.0.3 build v11.0.3rc0 (linux64 - "Ubuntu 20.04.6 LTS")

CPU model: AMD EPYC 7532 32-Core Processor, instruction set [SSE2|AVX|AVX2]
Thread count: 64 physical cores, 128 logical processors, using up to 4 threads

Optimize a model with 25722 rows, 14981 columns and 353498 nonzeros
Model fingerprint: 0x9e2bd338
Model has 1200 quadratic constraints
Variable types: 13781 continuous, 1200 integer (1200 binary)
Coefficient statistics:
  Matrix range     [3e-04, 2e+03]
  QMatrix range    [2e-03, 8e-03]
  QLMatrix range   [1e-03, 6e+01]
  Objective range  [1e+00, 1e+00]
  Bounds range     [1e+00, 1e+00]
  RHS range        [1e+00, 9e+03]
Presolve removed 20953 rows and 6609 columns
Presolve time: 0.11s
Presolved: 4769 rows, 8372 columns, 31178 nonzeros
Presolved model has 1200 quadratic constraint(s)
Variable types: 7172 continuous, 1200 integer (1200 binary)

Root relaxation: objective 3.817040e+04, 3806 iterations, 0.06 seconds (0.08 work units)

    Nodes    |    Current Node    |     Objective Bounds      |     Work
 Expl Unexpl |  Obj  Depth IntInf | Incumbent    BestBd   Gap | It/Node Time

     0     0 38170.3963    0   12          - 38170.3963      -     -    0s
     0     0 284886.456    0  253          - 284886.456      -     -    0s
     0     0 392850.191    0  181          - 392850.191      -     -    0s
     0     0 392851.148    0  181          - 392851.148      -     -    0s
     0     0 392920.372    0  125          - 392920.372      -     -    0s
     0     0 392920.887    0  125          - 392920.887      -     -    0s
     0     0 392921.071    0  125          - 392921.071      -     -    0s
     0     2 392921.071    0  125          - 392921.071      -     -    0s
H  150   208                    393283.82100 392922.102  0.09%  11.1    1s
*  150   208              57    393283.82100 392922.102  0.09%  11.1    1s

Cutting planes:
  Gomory: 76
  Implied bound: 283
  MIR: 27
  Flow cover: 93
  RLT: 1

Explored 213 nodes (11919 simplex iterations) in 1.62 seconds (1.85 work units)
Thread count was 4 (of 128 available processors)

Solution count 2: 393284 393284 

Optimal solution found (tolerance 1.00e-03)
Warning: max constraint violation (3.1992e-07) exceeds tolerance
Best objective 3.932838210008e+05, best bound 3.929221020369e+05, gap 0.0920%
